p cnf 2485 2289
c ind 911 912 913 914 915 916 917 918 919 920 0
c ind 921 922 923 924 925 926 927 928 929 930 0
c ind 931 932 933 934 935 936 937 938 939 940 0
c ind 941 942 943 944 945 946 947 948 949 950 0
c ind 951 952 953 954 955 956 957 958 959 960 0
c ind 961 962 963 964 965 966 967 968 969 970 0
c ind 971 972 973 974 975 976 977 978 979 980 0
c ind 981 982 983 984 985 986 987 698 699 700 0
c ind 701 702 703 704 705 706 707 708 709 710 0
c ind 711 712 713 714 715 716 717 718 719 720 0
c ind 721 722 723 724 725 726 727 728 729 730 0
c ind 731 732 733 734 735 736 737 738 739 740 0
c ind 741 742 743 744 745 746 747 748 749 750 0
c ind 751 752 753 754 755 756 757 758 759 1222 0
c ind 1032 1201 1202 1203 1204 1205 1206 1207 1208 1209 0
c ind 1210 1211 1212 1213 1214 760 1215 761 1216 1217 0
c ind 762 1218 763 1219 1220 1221 988 989 990 991 0
c ind 992 993 994 995 996 997 764 765 998 999 0
c ind 1000 766 1001 1002 767 1223 1003 1004 1005 1006 0
c ind 1007 1008 1033 1034 768 1035 1036 1037 1038 1039 0
c ind 769 1040 770 1041 771 1042 772 1043 1044 1045 0
c ind 1046 1047 1048 1049 1050 1051 1052 1053 1009 773 0
c ind 1010 1011 1012 1013 1014 1015 774 775 1016 1017 0
c ind 776 1018 777 1019 1020 1021 1022 902 1023 1024 0
c ind 1025 1026 1027 1028 1029 1054 1055 1056 1057 1058 0
c ind 1059 778 1060 779 1061 780 1062 1063 781 1064 0
c ind 1065 1066 1067 1068 1069 1070 1071 1072 1073 1074 0
c ind 782 1180 1181 1182 783 1183 784 1184 785 786 0
c ind 1185 1186 1187 1188 1189 1190 1191 903 1192 1193 0
c ind 1194 1195 1196 1197 787 788 1198 1199 1200 853 0
c ind 854 789 855 856 857 858 859 860 861 862 0
c ind 863 1075 864 865 866 867 868 1076 1077 869 0
c ind 870 1078 871 872 1079 873 874 875 876 877 0
c ind 878 879 880 881 882 883 884 885 886 887 0
c ind 888 889 890 891 892 893 894 895 896 897 0
c ind 898 899 900 901 1348 1349 1350 1351 1352 1353 0
c ind 1354 1355 1356 1357 1358 1359 1360 1030 1361 1362 0
c ind 1363 1364 1365 1366 1367 1368 1369 1370 1371 1372 0
c ind 1373 1374 1375 1376 1377 1378 1379 1380 1381 1382 0
c ind 1383 1384 1385 1386 1387 1388 1389 1390 1391 1392 0
c ind 1393 1394 1395 1396 1397 1398 1399 1031 1400 790 0
c ind 791 792 793 794 795 796 797 798 799 800 0
c ind 801 802 803 804 805 806 807 808 809 810 0
c ind 811 812 813 814 815 816 817 818 819 820 0
c ind 821 822 823 824 825 826 827 828 829 830 0
c ind 831 832 833 834 835 836 837 838 839 840 0
c ind 841 842 843 844 845 846 847 848 849 850 0
c ind 851 852 904 905 906 907 908 909 910 0
556 -557 667 0
556 -557 583 0
556 -557 628 0
-556 557 0
-583 -628 -556 -667 0
557 -558 -572 -582 0
-557 558 0
-557 572 0
-557 582 0
558 559 -563 0
-558 -559 0
-558 563 0
-560 -992 559 0
-562 -992 559 0
-561 -992 559 0
-559 992 0
-559 560 561 562 0
560 -998 999 1000 0
-560 998 0
-560 -1000 0
-560 -999 0
561 998 1001 1002 0
-561 -998 0
-561 -1002 0
-561 -1001 0
562 -993 994 995 0
-562 993 0
-562 -995 0
-562 -994 0
563 564 568 -1025 -1042 0
-563 1042 0
-563 -568 0
-563 1025 0
-563 -564 0
565 1026 564 1027 1028 0
-564 -565 0
-564 -1028 0
-564 -1026 0
-564 -1027 0
565 566 -1055 0
565 566 567 -1056 0
-565 -566 0
-565 -567 1055 0
-565 1055 1056 0
566 1029 -1054 0
-566 -1029 0
-566 1054 0
567 1061 1062 0
567 1061 1069 1070 0
-567 -1061 0
-567 -1062 -1069 0
-567 -1062 -1070 0
569 1043 568 1044 1045 0
-568 -569 0
-568 -1045 0
-568 -1043 0
-568 -1044 0
569 570 -1048 0
569 570 571 -1049 0
-569 -570 0
-569 -571 1048 0
-569 1048 1049 0
570 1046 -1047 0
-570 -1046 0
-570 1047 0
571 1009 1010 0
571 1009 1017 1018 0
-571 -1009 0
-571 -1010 -1017 0
-571 -1010 -1018 0
572 -575 1369 0
572 -575 1362 0
572 573 -575 0
-572 575 0
-573 -1362 -572 -1369 0
573 -574 -1370 1371 0
-573 1370 0
-573 -1371 0
-573 574 0
574 1373 -1374 -1375 1376 0
-574 -1373 0
-574 -1376 0
-574 1375 0
-574 1374 0
575 576 -579 581 0
575 576 -579 1222 0
-575 579 0
-575 -576 0
-581 -1222 -575 0
-577 -578 576 -1351 0
-577 -578 576 -1352 0
-576 578 0
-576 577 0
-576 1351 1352 0
577 1354 1355 1356 1357 0
-577 -1357 0
-577 -1356 0
-577 -1354 0
-577 -1355 0
578 -1348 -1349 -1350 1353 0
-578 1350 0
-578 -1353 0
-578 1348 0
-578 1349 0
579 -580 -954 -983 -1398 0
-579 580 0
-579 954 0
-579 1398 0
-579 983 0
580 -722 -816 -845 -925 0
-580 925 0
-580 722 0
-580 845 0
-580 816 0
581 874 875 876 0
-581 -874 0
-581 -876 0
-581 -875 0
582 -903 -1030 0
582 -902 1031 0
582 -902 -1030 0
582 -903 1031 0
1030 -1031 -582 0
902 903 -582 0
583 -584 614 1431 0
583 -584 -614 -1431 0
-583 584 0
-583 614 -1431 0
-583 -614 1431 0
584 585 -603 0
-584 -585 0
-584 603 0
585 -586 1085 0
585 586 -1085 0
-585 -586 -1085 0
-585 586 1085 0
586 -587 -579 0
586 601 -579 0
579 -586 0
-586 587 -601 0
587 -588 -600 -763 0
587 588 -589 -600 0
-587 600 0
-587 -588 763 0
-587 588 589 0
588 1393 -1395 0
-588 -1393 0
-588 1395 0
589 -590 -762 0
589 590 -591 0
-589 -590 762 0
-589 590 591 0
590 1365 -1367 0
-590 -1365 0
-590 1367 0
591 592 576 599 0
591 592 576 -598 0
-576 -591 0
-591 -592 0
-591 598 -599 0
592 594 761 -1222 0
592 593 594 -1222 0
-592 1222 0
-592 -594 0
-592 -593 -761 0
593 882 -884 0
-593 -882 0
-593 884 0
594 -595 596 0
-594 595 0
-594 -596 0
593 595 -874 0
593 595 -875 0
593 595 -876 0
-593 -595 0
-595 874 875 876 0
596 597 1031 0
596 -597 760 0
558 596 597 0
-596 -597 -760 0
-596 597 -558 -1031 0
597 861 -863 0
-597 -861 0
-597 863 0
598 895 -558 -1031 0
597 598 -558 -1031 0
558 -598 0
-598 1031 0
-597 -598 -895 0
597 599 1222 0
599 760 1222 0
599 895 1222 0
-599 -1222 0
-597 -599 -760 -895 0
600 -1362 1369 0
-600 1362 0
-600 -1369 0
601 602 -1362 0
589 591 601 0
591 601 602 0
589 601 -1362 0
-591 -601 1362 0
-589 -601 -602 0
573 602 -1362 -1369 0
-602 1362 0
-602 1369 0
-573 -602 0
603 -604 -1448 0
603 604 1448 0
-603 -604 1448 0
-603 604 -1448 0
604 -605 -579 0
604 613 -579 0
579 -604 0
-604 605 -613 0
588 -600 605 -606 0
-588 -600 605 -1079 0
600 -605 0
588 -605 606 0
-588 -605 1079 0
-590 606 -1078 0
590 606 -607 0
-590 -606 1078 0
590 -606 607 0
607 608 576 612 0
607 608 576 -611 0
-576 -607 0
-607 -608 0
-607 611 -612 0
608 -610 -895 1222 0
608 609 895 1222 0
-608 -1222 0
-608 610 -895 0
-608 -609 895 0
609 -1075 -558 0
-609 1075 0
558 -609 0
-597 610 1076 0
597 609 610 0
-597 -610 -1076 0
597 -609 -610 0
-595 610 611 0
595 -611 0
-610 -611 0
612 1077 -1222 0
593 612 -1222 0
-612 1222 0
-593 -612 -1077 0
606 613 -1362 0
602 607 613 0
606 607 613 0
602 613 -1362 0
-602 -606 -613 0
-607 -613 1362 0
614 625 -579 0
614 615 -579 -618 0
579 -614 0
-614 -615 -625 0
-614 618 -625 0
615 -617 -895 1222 0
615 616 895 1222 0
-615 -1222 0
-615 617 -895 0
-615 -616 895 0
616 -773 -558 0
-616 773 0
558 -616 0
-597 617 774 0
597 616 617 0
-597 -617 -774 0
597 -616 -617 0
618 -619 624 0
-595 617 618 -619 0
-618 619 0
595 -618 -624 0
-617 -618 -624 0
619 620 576 0
-576 -619 0
-619 -620 0
-590 620 -1362 0
620 621 -1362 0
-620 1362 0
590 -620 -621 0
621 622 623 0
574 621 622 -1362 0
-621 -622 0
-621 -623 1362 0
-574 -621 -623 0
-588 622 1369 0
-622 -1369 0
588 -622 0
623 -1369 -1370 1371 0
-623 1369 0
-623 1370 0
-623 -1371 0
624 775 -1222 0
593 624 -1222 0
-624 1222 0
-593 -624 -775 0
588 625 626 0
600 625 626 0
625 626 777 0
-625 -626 0
-588 -600 -625 -777 0
-590 626 -627 -776 0
-626 776 0
590 -626 0
-626 627 0
-621 627 -1362 0
-627 1362 0
621 -627 0
628 -629 659 1440 0
628 -629 -659 -1440 0
-628 629 0
-628 659 -1440 0
-628 -659 1440 0
629 -658 -630 1411 0
629 658 -630 -1411 0
-629 630 0
-629 -658 -1411 0
-629 658 1411 0
630 -648 -631 0
-630 631 0
-630 648 0
631 -632 -572 640 0
631 639 -572 640 0
572 -631 0
-631 -640 0
632 -639 -631 0
588 -600 632 -633 0
-588 -600 632 -767 0
600 -632 0
588 -632 633 0
-588 -632 767 0
-590 633 -766 0
590 633 -634 0
-590 -633 766 0
590 -633 634 0
634 635 576 638 0
634 635 576 -637 0
-576 -634 0
-634 -635 0
-634 637 -638 0
635 -636 -895 1222 0
558 635 895 1222 0
-635 -1222 0
-635 636 -895 0
-635 895 -558 0
558 597 636 0
-597 636 764 0
597 -636 -558 0
-597 -636 -764 0
-595 636 637 0
595 -637 0
-636 -637 0
638 765 -1222 0
593 638 -1222 0
-638 1222 0
-593 -638 -765 0
633 639 -1362 0
602 634 639 0
633 634 639 0
602 639 -1362 0
-602 -633 -639 0
-634 -639 1362 0
641 647 640 0
563 640 647 0
641 -646 -563 640 0
-640 -641 -563 0
563 -640 -647 0
-640 646 -647 0
641 642 644 -757 0
641 642 643 644 0
-641 -644 0
-641 -642 0
-641 -643 757 0
-559 642 751 0
642 751 788 1205 0
-642 -751 0
-642 -788 559 0
-642 -1205 559 0
643 -751 753 0
-643 751 0
-643 -753 0
644 -896 1187 0
644 645 1187 0
644 -895 1187 0
-644 -1187 0
-644 -645 895 896 0
645 897 898 899 1222 0
-645 -1222 0
-645 -899 0
-645 -897 0
-645 -898 0
-643 646 759 0
-646 -759 0
643 -646 0
-644 647 -789 0
-647 789 0
644 -647 0
620 648 -579 649 0
648 649 -579 657 0
579 -648 0
-648 -649 0
-620 -657 -648 0
651 1362 649 0
590 650 649 651 0
-649 -651 0
-649 -650 -1362 0
-590 -649 -1362 0
-588 650 -781 1369 0
-650 781 0
-650 -1369 0
588 -650 0
651 652 576 656 0
651 652 576 -655 0
-576 -651 0
-651 -652 0
-651 655 -656 0
652 -654 -895 1222 0
652 653 895 1222 0
-652 -1222 0
-652 654 -895 0
-652 -653 895 0
653 -1030 -558 0
-653 1030 0
558 -653 0
-597 654 778 0
597 653 654 0
-597 -654 -778 0
597 -653 -654 0
-595 654 655 0
595 -655 0
-654 -655 0
656 779 -1222 0
593 656 -1222 0
-656 1222 0
-593 -656 -779 0
650 657 780 0
621 650 657 0
-650 -657 0
-621 -657 -780 0
-643 658 -572 -563 0
563 -658 0
572 -658 0
643 -658 0
659 665 -579 0
659 660 -579 -663 0
579 -659 0
-659 -660 -665 0
-659 663 -665 0
660 -662 -895 1222 0
660 661 895 1222 0
-660 -1222 0
-660 662 -895 0
-660 -661 895 0
661 -782 -558 0
-661 782 0
558 -661 0
-597 662 783 0
597 661 662 0
-597 -662 -783 0
597 -661 -662 0
-619 663 664 0
-595 -619 662 663 0
619 -663 0
595 -663 -664 0
-662 -663 -664 0
664 784 -1222 0
593 664 -1222 0
-664 1222 0
-593 -664 -784 0
588 665 666 0
600 665 666 0
665 666 786 0
-665 -666 0
-588 -600 -665 -786 0
-590 -627 666 -785 0
-666 785 0
590 -666 0
627 -666 0
667 -668 -1426 0
667 668 1426 0
-667 -668 1426 0
-667 668 -1426 0
668 -669 -579 0
668 677 -579 0
579 -668 0
-668 669 -677 0
588 -600 669 -670 0
-588 -600 669 -772 0
600 -669 0
588 -669 670 0
-588 -669 772 0
-590 670 -771 0
590 670 -671 0
-590 -670 771 0
590 -670 671 0
671 672 576 676 0
671 672 576 -675 0
-576 -671 0
-671 -672 0
-671 675 -676 0
672 -674 -895 1222 0
672 673 895 1222 0
-672 -1222 0
-672 674 -895 0
-672 -673 895 0
673 -768 -558 0
-673 768 0
558 -673 0
-597 674 769 0
597 673 674 0
-597 -674 -769 0
597 -673 -674 0
-595 674 675 0
595 -675 0
-674 -675 0
676 770 -1222 0
593 676 -1222 0
-676 1222 0
-593 -676 -770 0
670 677 -1362 0
602 671 677 0
670 671 677 0
602 677 -1362 0
-602 -670 -677 0
-671 -677 1362 0
683 -557 678 0
679 -557 678 0
557 -678 0
-678 -679 -683 0
586 679 -631 -680 1840 0
-586 679 -631 -680 -1840 0
-679 680 0
586 -1840 -679 0
631 -679 0
-586 1840 -679 0
680 -681 -682 2186 0
-614 680 -681 -682 0
-680 682 0
-680 681 0
614 -2186 -680 0
-658 681 -648 2166 0
658 681 -648 -2166 0
648 -681 0
-658 -2166 -681 0
658 2166 -681 0
659 682 -2186 2195 0
614 -659 682 -2195 0
-659 682 -2186 -2195 0
614 659 682 2195 0
-659 2195 -682 0
659 -2195 -682 0
-614 2186 -682 0
604 -668 683 -2181 2203 0
-604 -668 683 -2181 -2203 0
604 668 683 2181 2203 0
-604 668 683 2181 -2203 0
-668 2181 -683 0
668 -2181 -683 0
604 -2203 -683 0
-604 2203 -683 0
628 684 -557 0
583 684 -557 0
-668 684 -557 0
557 -684 0
-583 -628 668 -684 0
629 685 -557 0
583 685 -557 0
-659 685 -557 0
557 -685 0
-583 -629 659 -685 0
-614 686 -557 0
629 686 -557 0
584 686 -557 0
557 -686 0
-584 614 -629 -686 0
-604 687 -557 0
687 688 -557 0
557 -687 0
604 -687 -688 0
585 -629 688 0
-585 -688 0
629 -688 0
-586 689 -557 0
629 689 -557 0
557 -689 0
586 -629 -689 0
658 690 -557 0
630 690 -557 0
557 -690 0
-658 -690 -630 0
630 691 -557 0
557 -691 0
-630 -691 0
668 692 -557 0
583 692 -557 0
628 692 -557 0
557 -692 0
-583 -628 -668 -692 0
659 693 -557 0
583 693 -557 0
629 693 -557 0
557 -693 0
-583 -629 -659 -693 0
688 694 -557 0
603 694 -557 0
614 694 -557 0
557 -694 0
-603 -614 -688 -694 0
688 695 -557 0
604 695 -557 0
557 -695 0
-604 -688 -695 0
629 696 -557 0
586 696 -557 0
557 -696 0
-586 -629 -696 0
-658 697 -557 0
630 697 -557 0
557 -697 0
658 -697 -630 0
1 556 0
-1 -556 0
2 556 0
-2 -556 0
3 678 0
-3 -678 0
100 -684 0
-100 684 0
101 -685 0
-101 685 0
102 -686 0
-102 686 0
103 -687 0
-103 687 0
105 -689 0
-105 689 0
115 -690 0
-115 690 0
181 -691 0
-181 691 0
376 -692 0
-376 692 0
377 -693 0
-377 693 0
378 -694 0
-378 694 0
379 -695 0
-379 695 0
381 -696 0
-381 696 0
391 -697 0
-391 697 0
457 -691 0
-457 691 0
-100 -376 2305 0
100 -2305 0
376 -2305 0
100 -1426 0
-100 1426 0
-101 -377 2306 0
101 -2306 0
377 -2306 0
101 -1440 0
-101 1440 0
-102 -378 2307 0
102 -2307 0
378 -2307 0
102 -1431 0
-102 1431 0
-103 -379 2308 0
103 -2308 0
379 -2308 0
103 -1448 0
-103 1448 0
-105 -381 2310 0
105 -2310 0
381 -2310 0
105 -1085 0
-105 1085 0
-115 -391 2320 0
115 -2320 0
391 -2320 0
115 -1411 0
-115 1411 0
-181 -457 2386 0
181 -2386 0
457 -2386 0
181 -1243 0
-181 1243 0
-1 0
-2 0
3 0
4 0
5 0
6 0
7 0
8 0
9 0
10 0
11 0
12 0
13 0
14 0
15 0
16 0
17 0
18 0
19 0
20 0
21 0
22 0
23 0
24 0
25 0
26 0
27 0
28 0
29 0
30 0
31 0
32 0
33 0
34 0
35 0
36 0
37 0
38 0
39 0
40 0
41 0
42 0
43 0
44 0
45 0
46 0
47 0
48 0
49 0
50 0
51 0
52 0
53 0
54 0
55 0
56 0
57 0
58 0
59 0
60 0
61 0
62 0
63 0
64 0
65 0
66 0
67 0
68 0
69 0
70 0
71 0
72 0
73 0
74 0
75 0
76 0
77 0
78 0
79 0
80 0
81 0
82 0
83 0
84 0
85 0
86 0
87 0
88 0
89 0
90 0
91 0
92 0
93 0
94 0
95 0
96 0
97 0
98 0
99 0
104 0
106 0
107 0
108 0
109 0
110 0
111 0
112 0
113 0
114 0
116 0
117 0
118 0
119 0
120 0
121 0
122 0
123 0
124 0
125 0
126 0
-127 0
128 0
129 0
130 0
131 0
132 0
133 0
134 0
135 0
136 0
137 0
138 0
139 0
140 0
141 0
142 0
143 0
144 0
145 0
146 0
147 0
148 0
149 0
150 0
151 0
152 0
153 0
154 0
155 0
156 0
157 0
158 0
159 0
160 0
161 0
162 0
163 0
164 0
165 0
166 0
167 0
168 0
169 0
170 0
171 0
172 0
173 0
174 0
175 0
176 0
177 0
178 0
179 0
180 0
-181 0
182 0
183 0
184 0
185 0
186 0
187 0
188 0
189 0
-190 0
191 0
192 0
193 0
194 0
195 0
196 0
197 0
198 0
199 0
200 0
201 0
202 0
203 0
204 0
205 0
206 0
207 0
208 0
209 0
210 0
211 0
212 0
213 0
214 0
215 0
216 0
217 0
218 0
-219 0
220 0
221 0
222 0
223 0
224 0
225 0
226 0
227 0
228 0
229 0
230 0
231 0
232 0
233 0
234 0
235 0
236 0
237 0
238 0
239 0
240 0
241 0
242 0
243 0
244 0
245 0
246 0
247 0
248 0
249 0
250 0
251 0
252 0
253 0
254 0
255 0
256 0
257 0
258 0
259 0
260 0
261 0
262 0
263 0
264 0
265 0
266 0
267 0
268 0
269 0
270 0
271 0
272 0
273 0
274 0
275 0
276 0
277 0
278 0
279 0
-280 0
-281 0
-282 0
-283 0
-284 0
-285 0
-286 0
-287 0
-288 0
-289 0
-290 0
-291 0
-292 0
-293 0
-294 0
-295 0
-296 0
-297 0
-298 0
-299 0
-300 0
-301 0
-302 0
-303 0
-304 0
-305 0
-306 0
-307 0
-308 0
-309 0
-310 0
-311 0
-312 0
-313 0
-314 0
-315 0
-316 0
-317 0
-318 0
-319 0
-320 0
-321 0
-322 0
-323 0
-324 0
-325 0
-326 0
-327 0
-328 0
-329 0
-330 0
-331 0
-332 0
-333 0
-334 0
-335 0
-336 0
-337 0
-338 0
-339 0
-340 0
-341 0
-342 0
-343 0
-344 0
-345 0
-346 0
-347 0
-348 0
-349 0
-350 0
-351 0
-352 0
-353 0
-354 0
-355 0
-356 0
-357 0
-358 0
-359 0
-360 0
-361 0
-362 0
-363 0
-364 0
-365 0
-366 0
-367 0
-368 0
-369 0
-370 0
-371 0
-372 0
-373 0
-374 0
-375 0
-380 0
-382 0
-383 0
-384 0
-385 0
-386 0
-387 0
-388 0
-389 0
-390 0
-392 0
-393 0
-394 0
-395 0
-396 0
-397 0
-398 0
-399 0
-400 0
-401 0
-402 0
403 0
-404 0
-405 0
-406 0
-407 0
-408 0
-409 0
-410 0
-411 0
-412 0
-413 0
-414 0
-415 0
-416 0
-417 0
-418 0
-419 0
-420 0
-421 0
-422 0
-423 0
-424 0
-425 0
-426 0
-427 0
-428 0
-429 0
-430 0
-431 0
-432 0
-433 0
-434 0
-435 0
-436 0
-437 0
-438 0
-439 0
-440 0
-441 0
-442 0
-443 0
-444 0
-445 0
-446 0
-447 0
-448 0
-449 0
-450 0
-451 0
-452 0
-453 0
-454 0
-455 0
-456 0
-457 0
-458 0
-459 0
-460 0
-461 0
-462 0
-463 0
-464 0
-465 0
466 0
-467 0
-468 0
-469 0
-470 0
-471 0
-472 0
-473 0
-474 0
-475 0
-476 0
-477 0
-478 0
-479 0
-480 0
-481 0
-482 0
-483 0
-484 0
-485 0
-486 0
-487 0
-488 0
-489 0
-490 0
-491 0
-492 0
-493 0
-494 0
495 0
-496 0
-497 0
-498 0
-499 0
-500 0
-501 0
-502 0
-503 0
-504 0
-505 0
-506 0
-507 0
-508 0
-509 0
-510 0
-511 0
-512 0
-513 0
-514 0
-515 0
-516 0
-517 0
-518 0
-519 0
-520 0
-521 0
-522 0
-523 0
-524 0
-525 0
-526 0
-527 0
-528 0
-529 0
-530 0
-531 0
-532 0
-533 0
-534 0
-535 0
-536 0
-537 0
-538 0
-539 0
-540 0
-541 0
-542 0
-543 0
-544 0
-545 0
-546 0
-547 0
-548 0
-549 0
-550 0
-551 0
-552 0
-553 0
-554 0
-555 0
556 0
557 0
558 0
-559 0
563 0
-564 0
-568 0
572 0
575 0
-576 0
579 0
580 0
582 0
630 0
631 0
-640 0
648 0
-649 0
-678 0
679 0
680 0
681 0
682 0
683 0
-691 0
722 0
816 0
845 0
925 0
954 0
983 0
1025 0
1042 0
-1080 0
1081 0
1082 0
1083 0
1084 0
1086 0
1087 0
1088 0
1089 0
1090 0
1091 0
1092 0
1093 0
1094 0
1095 0
1096 0
1097 0
1098 0
1099 0
1100 0
1101 0
1102 0
1103 0
1104 0
1105 0
1106 0
1107 0
1108 0
1109 0
1110 0
1111 0
1112 0
1113 0
1114 0
1115 0
1116 0
1117 0
1118 0
1119 0
1120 0
1121 0
1122 0
1123 0
1124 0
1125 0
1126 0
1127 0
1128 0
1129 0
1130 0
1131 0
1132 0
1133 0
1134 0
1135 0
1136 0
1137 0
1138 0
1139 0
1140 0
1141 0
1142 0
-1143 0
1144 0
1145 0
1146 0
1147 0
1148 0
1149 0
1150 0
1151 0
1152 0
1153 0
1154 0
1155 0
1156 0
1157 0
1158 0
1159 0
1160 0
1161 0
1162 0
1163 0
1164 0
1165 0
1166 0
1167 0
1168 0
1169 0
1170 0
-1171 0
1172 0
1173 0
1174 0
1175 0
1176 0
1177 0
1178 0
1179 0
1224 0
1225 0
1226 0
1227 0
1228 0
1229 0
1230 0
1231 0
1232 0
1233 0
1234 0
1235 0
1236 0
1237 0
1238 0
1239 0
1240 0
1241 0
1242 0
-1243 0
1244 0
1245 0
1246 0
1247 0
1248 0
1249 0
1250 0
1251 0
1252 0
1253 0
1254 0
1255 0
1256 0
1257 0
1258 0
1259 0
1260 0
1261 0
1262 0
1263 0
1264 0
1265 0
1266 0
1267 0
1268 0
1269 0
1270 0
1271 0
1272 0
1273 0
1274 0
1275 0
1276 0
1277 0
1278 0
1279 0
1280 0
1281 0
1282 0
1283 0
1284 0
1285 0
1286 0
1287 0
1288 0
1289 0
1290 0
1291 0
1292 0
1293 0
1294 0
1295 0
1296 0
1297 0
1298 0
1299 0
1300 0
1301 0
1302 0
1303 0
1304 0
1305 0
1306 0
1307 0
1308 0
1309 0
1310 0
1311 0
1312 0
1313 0
1314 0
1315 0
1316 0
1317 0
1318 0
1319 0
1320 0
1321 0
1322 0
1323 0
1324 0
1325 0
1326 0
1327 0
1328 0
1329 0
1330 0
1331 0
1332 0
1333 0
1334 0
1335 0
1336 0
1337 0
1338 0
1339 0
1340 0
1341 0
1342 0
1343 0
1344 0
1345 0
1346 0
1347 0
1398 0
1401 0
1402 0
1403 0
1404 0
1405 0
1406 0
1407 0
1408 0
1409 0
1410 0
1412 0
1413 0
1414 0
1415 0
1416 0
1417 0
1418 0
1419 0
1420 0
1421 0
1422 0
1423 0
1424 0
1425 0
1427 0
1428 0
1429 0
1430 0
1432 0
1433 0
1434 0
1435 0
1436 0
1437 0
1438 0
1439 0
1441 0
1442 0
1443 0
1444 0
1445 0
1446 0
1447 0
1449 0
1450 0
1451 0
1452 0
2208 0
-2209 0
-2210 0
-2211 0
-2212 0
-2213 0
-2214 0
-2215 0
-2216 0
-2217 0
-2218 0
-2219 0
-2220 0
-2221 0
-2222 0
-2223 0
-2224 0
-2225 0
-2226 0
-2227 0
-2228 0
-2229 0
-2230 0
-2231 0
-2232 0
-2233 0
-2234 0
-2235 0
-2236 0
-2237 0
-2238 0
-2239 0
-2240 0
-2241 0
-2242 0
-2243 0
-2244 0
-2245 0
-2246 0
-2247 0
-2248 0
-2249 0
-2250 0
-2251 0
-2252 0
-2253 0
-2254 0
-2255 0
-2256 0
-2257 0
-2258 0
-2259 0
-2260 0
-2261 0
-2262 0
-2263 0
-2264 0
-2265 0
-2266 0
-2267 0
-2268 0
-2269 0
-2270 0
-2271 0
-2272 0
-2273 0
-2274 0
-2275 0
-2276 0
-2277 0
-2278 0
-2279 0
-2280 0
-2281 0
-2282 0
-2283 0
-2284 0
-2285 0
-2286 0
-2287 0
-2288 0
-2289 0
-2290 0
-2291 0
-2292 0
-2293 0
-2294 0
-2295 0
-2296 0
-2297 0
-2298 0
-2299 0
-2300 0
-2301 0
-2302 0
-2303 0
-2304 0
-2309 0
-2311 0
-2312 0
-2313 0
-2314 0
-2315 0
-2316 0
-2317 0
-2318 0
-2319 0
-2321 0
-2322 0
-2323 0
-2324 0
-2325 0
-2326 0
-2327 0
-2328 0
-2329 0
-2330 0
-2331 0
-2332 0
-2333 0
-2334 0
-2335 0
-2336 0
-2337 0
-2338 0
-2339 0
-2340 0
-2341 0
-2342 0
-2343 0
-2344 0
-2345 0
-2346 0
-2347 0
-2348 0
-2349 0
-2350 0
-2351 0
-2352 0
-2353 0
-2354 0
-2355 0
-2356 0
-2357 0
-2358 0
-2359 0
-2360 0
-2361 0
-2362 0
-2363 0
-2364 0
-2365 0
-2366 0
-2367 0
-2368 0
-2369 0
-2370 0
-2371 0
-2372 0
-2373 0
-2374 0
-2375 0
-2376 0
-2377 0
-2378 0
-2379 0
-2380 0
-2381 0
-2382 0
-2383 0
-2384 0
-2385 0
-2386 0
-2387 0
-2388 0
-2389 0
-2390 0
-2391 0
-2392 0
-2393 0
-2394 0
-2395 0
-2396 0
-2397 0
-2398 0
-2399 0
-2400 0
-2401 0
-2402 0
-2403 0
-2404 0
-2405 0
-2406 0
-2407 0
-2408 0
-2409 0
-2410 0
-2411 0
-2412 0
-2413 0
-2414 0
-2415 0
-2416 0
-2417 0
-2418 0
-2419 0
-2420 0
-2421 0
-2422 0
-2423 0
-2424 0
-2425 0
-2426 0
-2427 0
-2428 0
-2429 0
-2430 0
-2431 0
-2432 0
-2433 0
-2434 0
-2435 0
-2436 0
-2437 0
-2438 0
-2439 0
-2440 0
-2441 0
-2442 0
-2443 0
-2444 0
-2445 0
-2446 0
-2447 0
-2448 0
-2449 0
-2450 0
-2451 0
-2452 0
-2453 0
-2454 0
-2455 0
-2456 0
-2457 0
-2458 0
-2459 0
-2460 0
-2461 0
-2462 0
-2463 0
-2464 0
-2465 0
-2466 0
-2467 0
-2468 0
-2469 0
-2470 0
-2471 0
-2472 0
-2473 0
-2474 0
-2475 0
-2476 0
-2477 0
-2478 0
-2479 0
-2480 0
-2481 0
-2482 0
-2483 0
-2484 0
-1666 0
-1667 0
-1668 0
-1669 0
-1670 0
-1671 0
-1672 0
-1673 0
-1674 0
-1675 0
-1676 0
-1677 0
-1678 0
-1679 0
-1680 0
-1681 0
-1682 0
-1683 0
-1684 0
-1685 0
-1686 0
-1687 0
-1688 0
-1689 0
-1690 0
-1691 0
-1692 0
-1693 0
-1694 0
-1695 0
-1696 0
-1697 0
-1698 0
-1699 0
-1700 0
-1701 0
-1702 0
-1703 0
-1704 0
-1705 0
-1706 0
-1707 0
-1708 0
-1709 0
-1710 0
-1711 0
-1712 0
-1713 0
-1714 0
-1715 0
-1716 0
-1717 0
-1718 0
-1719 0
-1720 0
-1721 0
-1722 0
-1723 0
-1724 0
-1725 0
-1726 0
-1727 0
-1728 0
-1729 0
-1730 0
-1731 0
-1732 0
-1733 0
-1734 0
-1735 0
-1736 0
-1737 0
-1738 0
-1739 0
-1740 0
-1741 0
-1742 0
-1453 0
-1454 0
-1455 0
-1456 0
-1457 0
-1458 0
-1459 0
-1460 0
-1461 0
-1462 0
-1463 0
-1464 0
-1465 0
-1466 0
-1467 0
-1468 0
-1469 0
-1470 0
-1471 0
-1472 0
-1473 0
-1474 0
-1475 0
-1476 0
-1477 0
-1478 0
-1479 0
-1480 0
-1481 0
-1482 0
-1483 0
-1484 0
-1485 0
-1486 0
-1487 0
-1488 0
-1489 0
-1490 0
-1491 0
-1492 0
-1493 0
-1494 0
-1495 0
-1496 0
-1497 0
-1498 0
-1499 0
-1500 0
-1501 0
-1502 0
-1503 0
-1504 0
-1505 0
-1506 0
-1507 0
-1508 0
-1509 0
-1510 0
-1511 0
-1512 0
-1513 0
-1514 0
-1977 0
-1787 0
-1956 0
-1957 0
-1958 0
-1959 0
-1960 0
-1961 0
-1962 0
-1963 0
-1964 0
-1965 0
-1966 0
-1967 0
-1968 0
-1969 0
-1515 0
-1970 0
-1516 0
-1971 0
-1972 0
-1517 0
-1973 0
-1518 0
-1974 0
-1975 0
-1976 0
-1743 0
-1744 0
-1745 0
-1746 0
-1747 0
-1748 0
-1749 0
-1750 0
-1751 0
-1752 0
-1519 0
-1520 0
-1753 0
-1754 0
-1755 0
-1521 0
-1756 0
-1757 0
-1522 0
-1978 0
-1758 0
-1759 0
-1760 0
-1761 0
-1762 0
-1763 0
-1788 0
-1789 0
-1523 0
-1790 0
-1791 0
-1792 0
-1793 0
-1794 0
-1524 0
-1795 0
-1525 0
-1796 0
-1526 0
-1797 0
-1527 0
-1798 0
-1799 0
-1800 0
-1801 0
-1802 0
-1803 0
-1804 0
-1805 0
-1806 0
-1807 0
-1808 0
-1764 0
-1528 0
-1765 0
-1766 0
-1767 0
-1768 0
-1769 0
-1770 0
-1529 0
-1530 0
-1771 0
-1772 0
-1531 0
-1773 0
-1532 0
-1774 0
-1775 0
-1776 0
-1777 0
-1657 0
-1778 0
-1779 0
-1780 0
-1781 0
-1782 0
-1783 0
-1784 0
-1809 0
-1810 0
-1811 0
-1812 0
-1813 0
-1814 0
-1533 0
-1815 0
-1534 0
-1816 0
-1535 0
-1817 0
-1818 0
-1536 0
-1819 0
-1820 0
-1821 0
-1822 0
-1823 0
-1824 0
-1825 0
-1826 0
-1827 0
-1828 0
-1829 0
-1537 0
-1935 0
-1936 0
-1937 0
-1538 0
-1938 0
-1539 0
-1939 0
-1540 0
-1541 0
-1940 0
-1941 0
-1942 0
-1943 0
-1944 0
-1945 0
-1946 0
-1658 0
-1947 0
-1948 0
-1949 0
-1950 0
-1951 0
-1952 0
-1542 0
-1543 0
-1953 0
-1954 0
-1955 0
-1608 0
-1609 0
-1544 0
-1610 0
-1611 0
-1612 0
-1613 0
-1614 0
-1615 0
-1616 0
-1617 0
-1618 0
-1830 0
-1619 0
-1620 0
-1621 0
-1622 0
-1623 0
-1831 0
-1832 0
-1624 0
-1625 0
-1833 0
-1626 0
-1627 0
-1834 0
-1628 0
-1629 0
-1630 0
-1631 0
-1632 0
-1633 0
-1634 0
-1635 0
-1636 0
-1637 0
-1638 0
-1639 0
-1640 0
-1641 0
-1642 0
-1643 0
-1644 0
-1645 0
-1646 0
-1647 0
-1648 0
-1649 0
-1650 0
-1651 0
-1652 0
-1653 0
-1654 0
-1655 0
-1656 0
-2103 0
-2104 0
-2105 0
-2106 0
-2107 0
-2108 0
-2109 0
-2110 0
-2111 0
-2112 0
-2113 0
-2114 0
-2115 0
-1785 0
-2116 0
-2117 0
-2118 0
-2119 0
-2120 0
-2121 0
-2122 0
-2123 0
-2124 0
-2125 0
-2126 0
-2127 0
-2128 0
-2129 0
-2130 0
-2131 0
-2132 0
-2133 0
-2134 0
-2135 0
-2136 0
-2137 0
-2138 0
-2139 0
-2140 0
-2141 0
-2142 0
-2143 0
-2144 0
-2145 0
-2146 0
-2147 0
-2148 0
-2149 0
-2150 0
-2151 0
-2152 0
-2153 0
-2154 0
-1786 0
-2155 0
-1545 0
-1546 0
-1547 0
-1548 0
-1549 0
-1550 0
-1551 0
-1552 0
-1553 0
-1554 0
-1555 0
-1556 0
-1557 0
-1558 0
-1559 0
-1560 0
-1561 0
-1562 0
-1563 0
-1564 0
-1565 0
-1566 0
-1567 0
-1568 0
-1569 0
-1570 0
-1571 0
-1572 0
-1573 0
-1574 0
-1575 0
-1576 0
-1577 0
-1578 0
-1579 0
-1580 0
-1581 0
-1582 0
-1583 0
-1584 0
-1585 0
-1586 0
-1587 0
-1588 0
-1589 0
-1590 0
-1591 0
-1592 0
-1593 0
-1594 0
-1595 0
-1596 0
-1597 0
-1598 0
-1599 0
-1600 0
-1601 0
-1602 0
-1603 0
-1604 0
-1605 0
-1606 0
-1607 0
-1659 0
-1660 0
-1661 0
-1662 0
-1663 0
-1664 0
-1665 0

